\ LP format - for model browsing. Use MPS format to capture full model detail.
Minimize
  8.4 RUp(g1,s1,t1) - 8.4 RDn(g1,s1,t1) + 100 RUp(g2,s1,t1)
   - 100 RDn(g2,s1,t1) + 16 RUpSC(g1,s1,t1) - 16 RDnSC(g1,s1,t1)
   + 500 Lshed(s1,t1) + 8.4 RUp(g1,s1,t2) - 8.4 RDn(g1,s1,t2)
   + 100 RUp(g2,s1,t2) - 100 RDn(g2,s1,t2) + 16 RUpSC(g1,s1,t2)
   - 16 RDnSC(g1,s1,t2) + 500 Lshed(s1,t2) + 8.4 RUp(g1,s1,t3)
   - 8.4 RDn(g1,s1,t3) + 100 RUp(g2,s1,t3) - 100 RDn(g2,s1,t3)
   + 16 RUpSC(g1,s1,t3) - 16 RDnSC(g1,s1,t3) + 500 Lshed(s1,t3)
   + 16 RUp(g1,s1,t4) - 16 RDn(g1,s1,t4) + 100 RUp(g2,s1,t4)
   - 100 RDn(g2,s1,t4) + 16 RUpSC(g1,s1,t4) - 16 RDnSC(g1,s1,t4)
   + 500 Lshed(s1,t4) + 8 RUp(g1,s1,t5) - 8 RDn(g1,s1,t5)
   + 100 RUp(g2,s1,t5) - 100 RDn(g2,s1,t5) + 16 RUpSC(g1,s1,t5)
   - 16 RDnSC(g1,s1,t5) + 500 Lshed(s1,t5) + 8 RUp(g1,s1,t6)
   - 8 RDn(g1,s1,t6) + 100 RUp(g2,s1,t6) - 100 RDn(g2,s1,t6)
   + 16 RUpSC(g1,s1,t6) - 16 RDnSC(g1,s1,t6) + 500 Lshed(s1,t6)
   + 8 RUp(g1,s1,t7) - 8 RDn(g1,s1,t7) + 100 RUp(g2,s1,t7)
   - 100 RDn(g2,s1,t7) + 16 RUpSC(g1,s1,t7) - 16 RDnSC(g1,s1,t7)
   + 500 Lshed(s1,t7) + 8 RUp(g1,s1,t8) - 8 RDn(g1,s1,t8)
   + 100 RUp(g2,s1,t8) - 100 RDn(g2,s1,t8) + 16 RUpSC(g1,s1,t8)
   - 16 RDnSC(g1,s1,t8) + 500 Lshed(s1,t8) + 8 RUp(g1,s1,t9)
   - 8 RDn(g1,s1,t9) + 100 RUp(g2,s1,t9) - 100 RDn(g2,s1,t9)
   + 16 RUpSC(g1,s1,t9) - 16 RDnSC(g1,s1,t9) + 500 Lshed(s1,t9)
   + 8 RUp(g1,s1,t10) - 8 RDn(g1,s1,t10) + 100 RUp(g2,s1,t10)
   - 100 RDn(g2,s1,t10) + 16 RUpSC(g1,s1,t10) - 16 RDnSC(g1,s1,t10)
   + 500 Lshed(s1,t10) + 8 RUp(g1,s1,t11) - 8 RDn(g1,s1,t11)
   + 100 RUp(g2,s1,t11) - 100 RDn(g2,s1,t11) + 16 RUpSC(g1,s1,t11)
   - 16 RDnSC(g1,s1,t11) + 500 Lshed(s1,t11) + 8 RUp(g1,s1,t12)
   - 8 RDn(g1,s1,t12) + 100 RUp(g2,s1,t12) - 100 RDn(g2,s1,t12)
   + 16 RUpSC(g1,s1,t12) - 16 RDnSC(g1,s1,t12) + 500 Lshed(s1,t12)
   + 8 RUp(g1,s1,t13) - 8 RDn(g1,s1,t13) + 100 RUp(g2,s1,t13)
   - 100 RDn(g2,s1,t13) + 16 RUpSC(g1,s1,t13) - 16 RDnSC(g1,s1,t13)
   + 500 Lshed(s1,t13) + 8 RUp(g1,s1,t14) - 8 RDn(g1,s1,t14)
   + 100 RUp(g2,s1,t14) - 100 RDn(g2,s1,t14) + 16 RUpSC(g1,s1,t14)
   - 16 RDnSC(g1,s1,t14) + 500 Lshed(s1,t14) + 8 RUp(g1,s1,t15)
   - 8 RDn(g1,s1,t15) + 100 RUp(g2,s1,t15) - 100 RDn(g2,s1,t15)
   + 16 RUpSC(g1,s1,t15) - 16 RDnSC(g1,s1,t15) + 500 Lshed(s1,t15)
   + 8 RUp(g1,s1,t16) - 8 RDn(g1,s1,t16) + 100 RUp(g2,s1,t16)
   - 100 RDn(g2,s1,t16) + 16 RUpSC(g1,s1,t16) - 16 RDnSC(g1,s1,t16)
   + 500 Lshed(s1,t16) + 8 RUp(g1,s1,t17) - 8 RDn(g1,s1,t17)
   + 100 RUp(g2,s1,t17) - 100 RDn(g2,s1,t17) + 16 RUpSC(g1,s1,t17)
   - 16 RDnSC(g1,s1,t17) + 500 Lshed(s1,t17) + 8 RUp(g1,s1,t18)
   - 8 RDn(g1,s1,t18) + 100 RUp(g2,s1,t18) - 100 RDn(g2,s1,t18)
   + 16 RUpSC(g1,s1,t18) - 16 RDnSC(g1,s1,t18) + 500 Lshed(s1,t18)
   + 8 RUp(g1,s1,t19) - 8 RDn(g1,s1,t19) + 100 RUp(g2,s1,t19)
   - 100 RDn(g2,s1,t19) + 16 RUpSC(g1,s1,t19) - 16 RDnSC(g1,s1,t19)
   + 500 Lshed(s1,t19) + 8 RUp(g1,s1,t20) - 8 RDn(g1,s1,t20)
   + 100 RUp(g2,s1,t20) - 100 RDn(g2,s1,t20) + 16 RUpSC(g1,s1,t20)
   - 16 RDnSC(g1,s1,t20) + 500 Lshed(s1,t20) + 8 RUp(g1,s1,t21)
   - 8 RDn(g1,s1,t21) + 100 RUp(g2,s1,t21) - 100 RDn(g2,s1,t21)
   + 16 RUpSC(g1,s1,t21) - 16 RDnSC(g1,s1,t21) + 500 Lshed(s1,t21)
   + 8 RUp(g1,s1,t22) - 8 RDn(g1,s1,t22) + 100 RUp(g2,s1,t22)
   - 100 RDn(g2,s1,t22) + 16 RUpSC(g1,s1,t22) - 16 RDnSC(g1,s1,t22)
   + 500 Lshed(s1,t22) + 8 RUp(g1,s1,t23) - 8 RDn(g1,s1,t23)
   + 100 RUp(g2,s1,t23) - 100 RDn(g2,s1,t23) + 16 RUpSC(g1,s1,t23)
   - 16 RDnSC(g1,s1,t23) + 500 Lshed(s1,t23) + 8 RUp(g1,s1,t24)
   - 8 RDn(g1,s1,t24) + 100 RUp(g2,s1,t24) - 100 RDn(g2,s1,t24)
   + 16 RUpSC(g1,s1,t24) - 16 RDnSC(g1,s1,t24) + 500 Lshed(s1,t24)
   + 8.4 RUp(g1,s2,t1) - 8.4 RDn(g1,s2,t1) + 100 RUp(g2,s2,t1)
   - 100 RDn(g2,s2,t1) + 16 RUpSC(g1,s2,t1) - 16 RDnSC(g1,s2,t1)
   + 500 Lshed(s2,t1) + 8.4 RUp(g1,s2,t2) - 8.4 RDn(g1,s2,t2)
   + 100 RUp(g2,s2,t2) - 100 RDn(g2,s2,t2) + 16 RUpSC(g1,s2,t2)
   - 16 RDnSC(g1,s2,t2) + 500 Lshed(s2,t2) + 8.4 RUp(g1,s2,t3)
   - 8.4 RDn(g1,s2,t3) + 100 RUp(g2,s2,t3) - 100 RDn(g2,s2,t3)
   + 16 RUpSC(g1,s2,t3) - 16 RDnSC(g1,s2,t3) + 500 Lshed(s2,t3)
   + 16 RUp(g1,s2,t4) - 16 RDn(g1,s2,t4) + 100 RUp(g2,s2,t4)
   - 100 RDn(g2,s2,t4) + 16 RUpSC(g1,s2,t4) - 16 RDnSC(g1,s2,t4)
   + 500 Lshed(s2,t4) + 8 RUp(g1,s2,t5) - 8 RDn(g1,s2,t5)
   + 100 RUp(g2,s2,t5) - 100 RDn(g2,s2,t5) + 16 RUpSC(g1,s2,t5)
   - 16 RDnSC(g1,s2,t5) + 500 Lshed(s2,t5) + 8 RUp(g1,s2,t6)
   - 8 RDn(g1,s2,t6) + 100 RUp(g2,s2,t6) - 100 RDn(g2,s2,t6)
   + 16 RUpSC(g1,s2,t6) - 16 RDnSC(g1,s2,t6) + 500 Lshed(s2,t6)
   + 8 RUp(g1,s2,t7) - 8 RDn(g1,s2,t7) + 100 RUp(g2,s2,t7)
   - 100 RDn(g2,s2,t7) + 16 RUpSC(g1,s2,t7) - 16 RDnSC(g1,s2,t7)
   + 500 Lshed(s2,t7) + 8 RUp(g1,s2,t8) - 8 RDn(g1,s2,t8)
   + 100 RUp(g2,s2,t8) - 100 RDn(g2,s2,t8) + 16 RUpSC(g1,s2,t8)
   - 16 RDnSC(g1,s2,t8) + 500 Lshed(s2,t8) + 8 RUp(g1,s2,t9)
   - 8 RDn(g1,s2,t9) + 100 RUp(g2,s2,t9) - 100 RDn(g2,s2,t9)
   + 16 RUpSC(g1,s2,t9) - 16 RDnSC(g1,s2,t9) + 500 Lshed(s2,t9)
   + 8 RUp(g1,s2,t10) - 8 RDn(g1,s2,t10) + 100 RUp(g2,s2,t10)
   - 100 RDn(g2,s2,t10) + 16 RUpSC(g1,s2,t10) - 16 RDnSC(g1,s2,t10)
   + 500 Lshed(s2,t10) + 8 RUp(g1,s2,t11) - 8 RDn(g1,s2,t11)
   + 100 RUp(g2,s2,t11) - 100 RDn(g2,s2,t11) + 16 RUpSC(g1,s2,t11)
   - 16 RDnSC(g1,s2,t11) + 500 Lshed(s2,t11) + 8 RUp(g1,s2,t12)
   - 8 RDn(g1,s2,t12) + 100 RUp(g2,s2,t12) - 100 RDn(g2,s2,t12)
   + 16 RUpSC(g1,s2,t12) - 16 RDnSC(g1,s2,t12) + 500 Lshed(s2,t12)
   + 8 RUp(g1,s2,t13) - 8 RDn(g1,s2,t13) + 100 RUp(g2,s2,t13)
   - 100 RDn(g2,s2,t13) + 16 RUpSC(g1,s2,t13) - 16 RDnSC(g1,s2,t13)
   + 500 Lshed(s2,t13) + 8 RUp(g1,s2,t14) - 8 RDn(g1,s2,t14)
   + 100 RUp(g2,s2,t14) - 100 RDn(g2,s2,t14) + 16 RUpSC(g1,s2,t14)
   - 16 RDnSC(g1,s2,t14) + 500 Lshed(s2,t14) + 8 RUp(g1,s2,t15)
   - 8 RDn(g1,s2,t15) + 100 RUp(g2,s2,t15) - 100 RDn(g2,s2,t15)
   + 16 RUpSC(g1,s2,t15) - 16 RDnSC(g1,s2,t15) + 500 Lshed(s2,t15)
   + 8 RUp(g1,s2,t16) - 8 RDn(g1,s2,t16) + 100 RUp(g2,s2,t16)
   - 100 RDn(g2,s2,t16) + 16 RUpSC(g1,s2,t16) - 16 RDnSC(g1,s2,t16)
   + 500 Lshed(s2,t16) + 8 RUp(g1,s2,t17) - 8 RDn(g1,s2,t17)
   + 100 RUp(g2,s2,t17) - 100 RDn(g2,s2,t17) + 16 RUpSC(g1,s2,t17)
   - 16 RDnSC(g1,s2,t17) + 500 Lshed(s2,t17) + 8 RUp(g1,s2,t18)
   - 8 RDn(g1,s2,t18) + 100 RUp(g2,s2,t18) - 100 RDn(g2,s2,t18)
   + 16 RUpSC(g1,s2,t18) - 16 RDnSC(g1,s2,t18) + 500 Lshed(s2,t18)
   + 8 RUp(g1,s2,t19) - 8 RDn(g1,s2,t19) + 100 RUp(g2,s2,t19)
   - 100 RDn(g2,s2,t19) + 16 RUpSC(g1,s2,t19) - 16 RDnSC(g1,s2,t19)
   + 500 Lshed(s2,t19) + 8 RUp(g1,s2,t20) - 8 RDn(g1,s2,t20)
   + 100 RUp(g2,s2,t20) - 100 RDn(g2,s2,t20) + 16 RUpSC(g1,s2,t20)
   - 16 RDnSC(g1,s2,t20) + 500 Lshed(s2,t20) + 8 RUp(g1,s2,t21)
   - 8 RDn(g1,s2,t21) + 100 RUp(g2,s2,t21) - 100 RDn(g2,s2,t21)
   + 16 RUpSC(g1,s2,t21) - 16 RDnSC(g1,s2,t21) + 500 Lshed(s2,t21)
   + 8 RUp(g1,s2,t22) - 8 RDn(g1,s2,t22) + 100 RUp(g2,s2,t22)
   - 100 RDn(g2,s2,t22) + 16 RUpSC(g1,s2,t22) - 16 RDnSC(g1,s2,t22)
   + 500 Lshed(s2,t22) + 8 RUp(g1,s2,t23) - 8 RDn(g1,s2,t23)
   + 100 RUp(g2,s2,t23) - 100 RDn(g2,s2,t23) + 16 RUpSC(g1,s2,t23)
   - 16 RDnSC(g1,s2,t23) + 500 Lshed(s2,t23) + 8 RUp(g1,s2,t24)
   - 8 RDn(g1,s2,t24) + 100 RUp(g2,s2,t24) - 100 RDn(g2,s2,t24)
   + 16 RUpSC(g1,s2,t24) - 16 RDnSC(g1,s2,t24) + 500 Lshed(s2,t24)
Subject To
 PowerBalance_RT(s1,t1): RUp(g1,s1,t1) - RDn(g1,s1,t1) + RUp(g2,s1,t1)
   - RDn(g2,s1,t1) + RUpSC(g1,s1,t1) - RDnSC(g1,s1,t1) - Wspill(w1,s1,t1)
   + Lshed(s1,t1) = -15
 PowerBalance_RT(s1,t2): RUp(g1,s1,t2) - RDn(g1,s1,t2) + RUp(g2,s1,t2)
   - RDn(g2,s1,t2) + RUpSC(g1,s1,t2) - RDnSC(g1,s1,t2) - Wspill(w1,s1,t2)
   + Lshed(s1,t2) = -20
 PowerBalance_RT(s1,t3): RUp(g1,s1,t3) - RDn(g1,s1,t3) + RUp(g2,s1,t3)
   - RDn(g2,s1,t3) + RUpSC(g1,s1,t3) - RDnSC(g1,s1,t3) - Wspill(w1,s1,t3)
   + Lshed(s1,t3) = -1
 PowerBalance_RT(s1,t4): RUp(g1,s1,t4) - RDn(g1,s1,t4) + RUp(g2,s1,t4)
   - RDn(g2,s1,t4) + RUpSC(g1,s1,t4) - RDnSC(g1,s1,t4) - Wspill(w1,s1,t4)
   + Lshed(s1,t4) = -4.1253065
 PowerBalance_RT(s1,t5): RUp(g1,s1,t5) - RDn(g1,s1,t5) + RUp(g2,s1,t5)
   - RDn(g2,s1,t5) + RUpSC(g1,s1,t5) - RDnSC(g1,s1,t5) - Wspill(w1,s1,t5)
   + Lshed(s1,t5) = 21.18026760000018
 PowerBalance_RT(s1,t6): RUp(g1,s1,t6) - RDn(g1,s1,t6) + RUp(g2,s1,t6)
   - RDn(g2,s1,t6) + RUpSC(g1,s1,t6) - RDnSC(g1,s1,t6) - Wspill(w1,s1,t6)
   + Lshed(s1,t6) = 21.63933250000019
 PowerBalance_RT(s1,t7): RUp(g1,s1,t7) - RDn(g1,s1,t7) + RUp(g2,s1,t7)
   - RDn(g2,s1,t7) + RUpSC(g1,s1,t7) - RDnSC(g1,s1,t7) - Wspill(w1,s1,t7)
   + Lshed(s1,t7) = 17.7892419500002
 PowerBalance_RT(s1,t8): RUp(g1,s1,t8) - RDn(g1,s1,t8) + RUp(g2,s1,t8)
   - RDn(g2,s1,t8) + RUpSC(g1,s1,t8) - RDnSC(g1,s1,t8) - Wspill(w1,s1,t8)
   + Lshed(s1,t8) = 12.78787190000018
 PowerBalance_RT(s1,t9): RUp(g1,s1,t9) - RDn(g1,s1,t9) + RUp(g2,s1,t9)
   - RDn(g2,s1,t9) + RUpSC(g1,s1,t9) - RDnSC(g1,s1,t9) - Wspill(w1,s1,t9)
   + Lshed(s1,t9) = 11.61321805000018
 PowerBalance_RT(s1,t10): RUp(g1,s1,t10) - RDn(g1,s1,t10) + RUp(g2,s1,t10)
   - RDn(g2,s1,t10) + RUpSC(g1,s1,t10) - RDnSC(g1,s1,t10)
   - Wspill(w1,s1,t10) + Lshed(s1,t10) = 15.27683835000019
 PowerBalance_RT(s1,t11): RUp(g1,s1,t11) - RDn(g1,s1,t11) + RUp(g2,s1,t11)
   - RDn(g2,s1,t11) + RUpSC(g1,s1,t11) - RDnSC(g1,s1,t11)
   - Wspill(w1,s1,t11) + Lshed(s1,t11) = 21.43552940000017
 PowerBalance_RT(s1,t12): RUp(g1,s1,t12) - RDn(g1,s1,t12) + RUp(g2,s1,t12)
   - RDn(g2,s1,t12) + RUpSC(g1,s1,t12) - RDnSC(g1,s1,t12)
   - Wspill(w1,s1,t12) + Lshed(s1,t12) = 24.09934735000019
 PowerBalance_RT(s1,t13): RUp(g1,s1,t13) - RDn(g1,s1,t13) + RUp(g2,s1,t13)
   - RDn(g2,s1,t13) + RUpSC(g1,s1,t13) - RDnSC(g1,s1,t13)
   - Wspill(w1,s1,t13) + Lshed(s1,t13) = 36.67886475000019
 PowerBalance_RT(s1,t14): RUp(g1,s1,t14) - RDn(g1,s1,t14) + RUp(g2,s1,t14)
   - RDn(g2,s1,t14) + RUpSC(g1,s1,t14) - RDnSC(g1,s1,t14)
   - Wspill(w1,s1,t14) + Lshed(s1,t14) = 36.13111390000019
 PowerBalance_RT(s1,t15): RUp(g1,s1,t15) - RDn(g1,s1,t15) + RUp(g2,s1,t15)
   - RDn(g2,s1,t15) + RUpSC(g1,s1,t15) - RDnSC(g1,s1,t15)
   - Wspill(w1,s1,t15) + Lshed(s1,t15) = 37.68645175000013
 PowerBalance_RT(s1,t16): RUp(g1,s1,t16) - RDn(g1,s1,t16) + RUp(g2,s1,t16)
   - RDn(g2,s1,t16) + RUpSC(g1,s1,t16) - RDnSC(g1,s1,t16)
   - Wspill(w1,s1,t16) + Lshed(s1,t16) = 40.50758595000014
 PowerBalance_RT(s1,t17): RUp(g1,s1,t17) - RDn(g1,s1,t17) + RUp(g2,s1,t17)
   - RDn(g2,s1,t17) + RUpSC(g1,s1,t17) - RDnSC(g1,s1,t17)
   - Wspill(w1,s1,t17) + Lshed(s1,t17) = 41.57232318
 PowerBalance_RT(s1,t18): RUp(g1,s1,t18) - RDn(g1,s1,t18) + RUp(g2,s1,t18)
   - RDn(g2,s1,t18) + RUpSC(g1,s1,t18) - RDnSC(g1,s1,t18)
   - Wspill(w1,s1,t18) + Lshed(s1,t18) = 41.05868387
 PowerBalance_RT(s1,t19): RUp(g1,s1,t19) - RDn(g1,s1,t19) + RUp(g2,s1,t19)
   - RDn(g2,s1,t19) + RUpSC(g1,s1,t19) - RDnSC(g1,s1,t19)
   - Wspill(w1,s1,t19) + Lshed(s1,t19) = 40.5338487
 PowerBalance_RT(s1,t20): RUp(g1,s1,t20) - RDn(g1,s1,t20) + RUp(g2,s1,t20)
   - RDn(g2,s1,t20) + RUpSC(g1,s1,t20) - RDnSC(g1,s1,t20)
   - Wspill(w1,s1,t20) + Lshed(s1,t20) = 36.95226797
 PowerBalance_RT(s1,t21): RUp(g1,s1,t21) - RDn(g1,s1,t21) + RUp(g2,s1,t21)
   - RDn(g2,s1,t21) + RUpSC(g1,s1,t21) - RDnSC(g1,s1,t21)
   - Wspill(w1,s1,t21) + Lshed(s1,t21) = 32.47666078
 PowerBalance_RT(s1,t22): RUp(g1,s1,t22) - RDn(g1,s1,t22) + RUp(g2,s1,t22)
   - RDn(g2,s1,t22) + RUpSC(g1,s1,t22) - RDnSC(g1,s1,t22)
   - Wspill(w1,s1,t22) + Lshed(s1,t22) = 31.12886859
 PowerBalance_RT(s1,t23): RUp(g1,s1,t23) - RDn(g1,s1,t23) + RUp(g2,s1,t23)
   - RDn(g2,s1,t23) + RUpSC(g1,s1,t23) - RDnSC(g1,s1,t23)
   - Wspill(w1,s1,t23) + Lshed(s1,t23) = 32.4492528
 PowerBalance_RT(s1,t24): RUp(g1,s1,t24) - RDn(g1,s1,t24) + RUp(g2,s1,t24)
   - RDn(g2,s1,t24) + RUpSC(g1,s1,t24) - RDnSC(g1,s1,t24)
   - Wspill(w1,s1,t24) + Lshed(s1,t24) = 34.74417056999999
 PowerBalance_RT(s2,t1): RUp(g1,s2,t1) - RDn(g1,s2,t1) + RUp(g2,s2,t1)
   - RDn(g2,s2,t1) + RUpSC(g1,s2,t1) - RDnSC(g1,s2,t1) - Wspill(w1,s2,t1)
   + Lshed(s2,t1) = -15
 PowerBalance_RT(s2,t2): RUp(g1,s2,t2) - RDn(g1,s2,t2) + RUp(g2,s2,t2)
   - RDn(g2,s2,t2) + RUpSC(g1,s2,t2) - RDnSC(g1,s2,t2) - Wspill(w1,s2,t2)
   + Lshed(s2,t2) = -20
 PowerBalance_RT(s2,t3): RUp(g1,s2,t3) - RDn(g1,s2,t3) + RUp(g2,s2,t3)
   - RDn(g2,s2,t3) + RUpSC(g1,s2,t3) - RDnSC(g1,s2,t3) - Wspill(w1,s2,t3)
   + Lshed(s2,t3) = -1
 PowerBalance_RT(s2,t4): RUp(g1,s2,t4) - RDn(g1,s2,t4) + RUp(g2,s2,t4)
   - RDn(g2,s2,t4) + RUpSC(g1,s2,t4) - RDnSC(g1,s2,t4) - Wspill(w1,s2,t4)
   + Lshed(s2,t4) = -34.1498389
 PowerBalance_RT(s2,t5): RUp(g1,s2,t5) - RDn(g1,s2,t5) + RUp(g2,s2,t5)
   - RDn(g2,s2,t5) + RUpSC(g1,s2,t5) - RDnSC(g1,s2,t5) - Wspill(w1,s2,t5)
   + Lshed(s2,t5) = -21.18026759999982
 PowerBalance_RT(s2,t6): RUp(g1,s2,t6) - RDn(g1,s2,t6) + RUp(g2,s2,t6)
   - RDn(g2,s2,t6) + RUpSC(g1,s2,t6) - RDnSC(g1,s2,t6) - Wspill(w1,s2,t6)
   + Lshed(s2,t6) = -21.63933249999981
 PowerBalance_RT(s2,t7): RUp(g1,s2,t7) - RDn(g1,s2,t7) + RUp(g2,s2,t7)
   - RDn(g2,s2,t7) + RUpSC(g1,s2,t7) - RDnSC(g1,s2,t7) - Wspill(w1,s2,t7)
   + Lshed(s2,t7) = -17.78924194999981
 PowerBalance_RT(s2,t8): RUp(g1,s2,t8) - RDn(g1,s2,t8) + RUp(g2,s2,t8)
   - RDn(g2,s2,t8) + RUpSC(g1,s2,t8) - RDnSC(g1,s2,t8) - Wspill(w1,s2,t8)
   + Lshed(s2,t8) = -12.78787189999982
 PowerBalance_RT(s2,t9): RUp(g1,s2,t9) - RDn(g1,s2,t9) + RUp(g2,s2,t9)
   - RDn(g2,s2,t9) + RUpSC(g1,s2,t9) - RDnSC(g1,s2,t9) - Wspill(w1,s2,t9)
   + Lshed(s2,t9) = -11.61321804999982
 PowerBalance_RT(s2,t10): RUp(g1,s2,t10) - RDn(g1,s2,t10) + RUp(g2,s2,t10)
   - RDn(g2,s2,t10) + RUpSC(g1,s2,t10) - RDnSC(g1,s2,t10)
   - Wspill(w1,s2,t10) + Lshed(s2,t10) = -15.27683834999981
 PowerBalance_RT(s2,t11): RUp(g1,s2,t11) - RDn(g1,s2,t11) + RUp(g2,s2,t11)
   - RDn(g2,s2,t11) + RUpSC(g1,s2,t11) - RDnSC(g1,s2,t11)
   - Wspill(w1,s2,t11) + Lshed(s2,t11) = -21.43552939999982
 PowerBalance_RT(s2,t12): RUp(g1,s2,t12) - RDn(g1,s2,t12) + RUp(g2,s2,t12)
   - RDn(g2,s2,t12) + RUpSC(g1,s2,t12) - RDnSC(g1,s2,t12)
   - Wspill(w1,s2,t12) + Lshed(s2,t12) = -24.09934734999981
 PowerBalance_RT(s2,t13): RUp(g1,s2,t13) - RDn(g1,s2,t13) + RUp(g2,s2,t13)
   - RDn(g2,s2,t13) + RUpSC(g1,s2,t13) - RDnSC(g1,s2,t13)
   - Wspill(w1,s2,t13) + Lshed(s2,t13) = -36.6788647499998
 PowerBalance_RT(s2,t14): RUp(g1,s2,t14) - RDn(g1,s2,t14) + RUp(g2,s2,t14)
   - RDn(g2,s2,t14) + RUpSC(g1,s2,t14) - RDnSC(g1,s2,t14)
   - Wspill(w1,s2,t14) + Lshed(s2,t14) = -36.1311138999998
 PowerBalance_RT(s2,t15): RUp(g1,s2,t15) - RDn(g1,s2,t15) + RUp(g2,s2,t15)
   - RDn(g2,s2,t15) + RUpSC(g1,s2,t15) - RDnSC(g1,s2,t15)
   - Wspill(w1,s2,t15) + Lshed(s2,t15) = -37.68645174999986
 PowerBalance_RT(s2,t16): RUp(g1,s2,t16) - RDn(g1,s2,t16) + RUp(g2,s2,t16)
   - RDn(g2,s2,t16) + RUpSC(g1,s2,t16) - RDnSC(g1,s2,t16)
   - Wspill(w1,s2,t16) + Lshed(s2,t16) = -40.50758594999986
 PowerBalance_RT(s2,t17): RUp(g1,s2,t17) - RDn(g1,s2,t17) + RUp(g2,s2,t17)
   - RDn(g2,s2,t17) + RUpSC(g1,s2,t17) - RDnSC(g1,s2,t17)
   - Wspill(w1,s2,t17) + Lshed(s2,t17) = -44.20655711999999
 PowerBalance_RT(s2,t18): RUp(g1,s2,t18) - RDn(g1,s2,t18) + RUp(g2,s2,t18)
   - RDn(g2,s2,t18) + RUpSC(g1,s2,t18) - RDnSC(g1,s2,t18)
   - Wspill(w1,s2,t18) + Lshed(s2,t18) = -47.65315703
 PowerBalance_RT(s2,t19): RUp(g1,s2,t19) - RDn(g1,s2,t19) + RUp(g2,s2,t19)
   - RDn(g2,s2,t19) + RUpSC(g1,s2,t19) - RDnSC(g1,s2,t19)
   - Wspill(w1,s2,t19) + Lshed(s2,t19) = -48.2537103
 PowerBalance_RT(s2,t20): RUp(g1,s2,t20) - RDn(g1,s2,t20) + RUp(g2,s2,t20)
   - RDn(g2,s2,t20) + RUpSC(g1,s2,t20) - RDnSC(g1,s2,t20)
   - Wspill(w1,s2,t20) + Lshed(s2,t20) = -43.66072753
 PowerBalance_RT(s2,t21): RUp(g1,s2,t21) - RDn(g1,s2,t21) + RUp(g2,s2,t21)
   - RDn(g2,s2,t21) + RUpSC(g1,s2,t21) - RDnSC(g1,s2,t21)
   - Wspill(w1,s2,t21) + Lshed(s2,t21) = -44.39044411999999
 PowerBalance_RT(s2,t22): RUp(g1,s2,t22) - RDn(g1,s2,t22) + RUp(g2,s2,t22)
   - RDn(g2,s2,t22) + RUpSC(g1,s2,t22) - RDnSC(g1,s2,t22)
   - Wspill(w1,s2,t22) + Lshed(s2,t22) = -47.94544200999999
 PowerBalance_RT(s2,t23): RUp(g1,s2,t23) - RDn(g1,s2,t23) + RUp(g2,s2,t23)
   - RDn(g2,s2,t23) + RUpSC(g1,s2,t23) - RDnSC(g1,s2,t23)
   - Wspill(w1,s2,t23) + Lshed(s2,t23) = -48.7561905
 PowerBalance_RT(s2,t24): RUp(g1,s2,t24) - RDn(g1,s2,t24) + RUp(g2,s2,t24)
   - RDn(g2,s2,t24) + RUpSC(g1,s2,t24) - RDnSC(g1,s2,t24)
   - Wspill(w1,s2,t24) + Lshed(s2,t24) = -46.77260943
 RegUp_max_RT(g1,s1,t1): RUp(g1,s1,t1) <= 100
 RegDown_max_RT(g1,s1,t1): RDn(g1,s1,t1) <= 50
 RegUp_max_RT(g2,s1,t1): RUp(g2,s1,t1) <= 0
 RegDown_max_RT(g2,s1,t1): RDn(g2,s1,t1) <= 0
 RegUp_max_RT(g1,s1,t2): RUp(g1,s1,t2) <= 100
 RegDown_max_RT(g1,s1,t2): RDn(g1,s1,t2) <= 50
 RegUp_max_RT(g2,s1,t2): RUp(g2,s1,t2) <= 0
 RegDown_max_RT(g2,s1,t2): RDn(g2,s1,t2) <= 0
 RegUp_max_RT(g1,s1,t3): RUp(g1,s1,t3) <= 100
 RegDown_max_RT(g1,s1,t3): RDn(g1,s1,t3) <= 50
 RegUp_max_RT(g2,s1,t3): RUp(g2,s1,t3) <= 0
 RegDown_max_RT(g2,s1,t3): RDn(g2,s1,t3) <= 0
 RegUp_max_RT(g1,s1,t4): RUp(g1,s1,t4) <= 96.46446609
 RegDown_max_RT(g1,s1,t4): RDn(g1,s1,t4) <= 53.53553391
 RegUp_max_RT(g2,s1,t4): RUp(g2,s1,t4) <= 0
 RegDown_max_RT(g2,s1,t4): RDn(g2,s1,t4) <= 0
 RegUp_max_RT(g1,s1,t5): RUp(g1,s1,t5) <= 119.0600068800002
 RegDown_max_RT(g1,s1,t5): RDn(g1,s1,t5) <= 30.93999311999982
 RegUp_max_RT(g2,s1,t5): RUp(g2,s1,t5) <= 0
 RegDown_max_RT(g2,s1,t5): RDn(g2,s1,t5) <= 0
 RegUp_max_RT(g1,s1,t6): RUp(g1,s1,t6) <= 126.7852353700002
 RegDown_max_RT(g1,s1,t6): RDn(g1,s1,t6) <= 23.21476462999981
 RegUp_max_RT(g2,s1,t6): RUp(g2,s1,t6) <= 0
 RegDown_max_RT(g2,s1,t6): RDn(g2,s1,t6) <= 0
 RegUp_max_RT(g1,s1,t7): RUp(g1,s1,t7) <= 120.8693571500002
 RegDown_max_RT(g1,s1,t7): RDn(g1,s1,t7) <= 29.1306428499998
 RegUp_max_RT(g2,s1,t7): RUp(g2,s1,t7) <= 0
 RegDown_max_RT(g2,s1,t7): RDn(g2,s1,t7) <= 0
 RegUp_max_RT(g1,s1,t8): RUp(g1,s1,t8) <= 113.5433780700002
 RegDown_max_RT(g1,s1,t8): RDn(g1,s1,t8) <= 36.45662192999982
 RegUp_max_RT(g2,s1,t8): RUp(g2,s1,t8) <= 0
 RegDown_max_RT(g2,s1,t8): RDn(g2,s1,t8) <= 0
 RegUp_max_RT(g1,s1,t9): RUp(g1,s1,t9) <= 110.8317482300002
 RegDown_max_RT(g1,s1,t9): RDn(g1,s1,t9) <= 39.16825176999982
 RegUp_max_RT(g2,s1,t9): RUp(g2,s1,t9) <= 0
 RegDown_max_RT(g2,s1,t9): RDn(g2,s1,t9) <= 0
 RegUp_max_RT(g1,s1,t10): RUp(g1,s1,t10) <= 113.7893920400002
 RegDown_max_RT(g1,s1,t10): RDn(g1,s1,t10) <= 36.21060795999981
 RegUp_max_RT(g2,s1,t10): RUp(g2,s1,t10) <= 0
 RegDown_max_RT(g2,s1,t10): RDn(g2,s1,t10) <= 0
 RegUp_max_RT(g1,s1,t11): RUp(g1,s1,t11) <= 120.1875180000002
 RegDown_max_RT(g1,s1,t11): RDn(g1,s1,t11) <= 29.81248199999983
 RegUp_max_RT(g2,s1,t11): RUp(g2,s1,t11) <= 0
 RegDown_max_RT(g2,s1,t11): RDn(g2,s1,t11) <= 0
 RegUp_max_RT(g1,s1,t12): RUp(g1,s1,t12) <= 123.9105017200002
 RegDown_max_RT(g1,s1,t12): RDn(g1,s1,t12) <= 26.08949827999982
 RegUp_max_RT(g2,s1,t12): RUp(g2,s1,t12) <= 0
 RegDown_max_RT(g2,s1,t12): RDn(g2,s1,t12) <= 0
 RegUp_max_RT(g1,s1,t13): RUp(g1,s1,t13) <= 138.8921143500002
 RegDown_max_RT(g1,s1,t13): RDn(g1,s1,t13) <= 11.10788564999982
 RegUp_max_RT(g2,s1,t13): RUp(g2,s1,t13) <= 0
 RegDown_max_RT(g2,s1,t13): RDn(g2,s1,t13) <= 0
 RegUp_max_RT(g1,s1,t14): RUp(g1,s1,t14) <= 142.6755634300002
 RegDown_max_RT(g1,s1,t14): RDn(g1,s1,t14) <= 7.324436569999804
 RegUp_max_RT(g2,s1,t14): RUp(g2,s1,t14) <= 0
 RegDown_max_RT(g2,s1,t14): RDn(g2,s1,t14) <= 0
 RegUp_max_RT(g1,s1,t15): RUp(g1,s1,t15) <= 145.0945321500001
 RegDown_max_RT(g1,s1,t15): RDn(g1,s1,t15) <= 4.905467849999866
 RegUp_max_RT(g2,s1,t15): RUp(g2,s1,t15) <= 0
 RegDown_max_RT(g2,s1,t15): RDn(g2,s1,t15) <= 0
 RegUp_max_RT(g1,s1,t16): RUp(g1,s1,t16) <= 148.6020316600001
 RegDown_max_RT(g1,s1,t16): RDn(g1,s1,t16) <= 1.397968339999864
 RegUp_max_RT(g2,s1,t16): RUp(g2,s1,t16) <= 0
 RegDown_max_RT(g2,s1,t16): RDn(g2,s1,t16) <= 0
 RegUp_max_RT(g1,s1,t17): RUp(g1,s1,t17) <= 150
 RegDown_max_RT(g1,s1,t17): RDn(g1,s1,t17) <= 0
 RegUp_max_RT(g2,s1,t17): RUp(g2,s1,t17) <= 0
 RegDown_max_RT(g2,s1,t17): RDn(g2,s1,t17) <= 0
 RegUp_max_RT(g1,s1,t18): RUp(g1,s1,t18) <= 150
 RegDown_max_RT(g1,s1,t18): RDn(g1,s1,t18) <= 0
 RegUp_max_RT(g2,s1,t18): RUp(g2,s1,t18) <= 0
 RegDown_max_RT(g2,s1,t18): RDn(g2,s1,t18) <= 0
 RegUp_max_RT(g1,s1,t19): RUp(g1,s1,t19) <= 150
 RegDown_max_RT(g1,s1,t19): RDn(g1,s1,t19) <= 0
 RegUp_max_RT(g2,s1,t19): RUp(g2,s1,t19) <= 0
 RegDown_max_RT(g2,s1,t19): RDn(g2,s1,t19) <= 0
 RegUp_max_RT(g1,s1,t20): RUp(g1,s1,t20) <= 150
 RegDown_max_RT(g1,s1,t20): RDn(g1,s1,t20) <= 0
 RegUp_max_RT(g2,s1,t20): RUp(g2,s1,t20) <= 0
 RegDown_max_RT(g2,s1,t20): RDn(g2,s1,t20) <= 0
 RegUp_max_RT(g1,s1,t21): RUp(g1,s1,t21) <= 150
 RegDown_max_RT(g1,s1,t21): RDn(g1,s1,t21) <= 0
 RegUp_max_RT(g2,s1,t21): RUp(g2,s1,t21) <= 0
 RegDown_max_RT(g2,s1,t21): RDn(g2,s1,t21) <= 0
 RegUp_max_RT(g1,s1,t22): RUp(g1,s1,t22) <= 150
 RegDown_max_RT(g1,s1,t22): RDn(g1,s1,t22) <= 0
 RegUp_max_RT(g2,s1,t22): RUp(g2,s1,t22) <= 0
 RegDown_max_RT(g2,s1,t22): RDn(g2,s1,t22) <= 0
 RegUp_max_RT(g1,s1,t23): RUp(g1,s1,t23) <= 150
 RegDown_max_RT(g1,s1,t23): RDn(g1,s1,t23) <= 0
 RegUp_max_RT(g2,s1,t23): RUp(g2,s1,t23) <= 0
 RegDown_max_RT(g2,s1,t23): RDn(g2,s1,t23) <= 0
 RegUp_max_RT(g1,s1,t24): RUp(g1,s1,t24) <= 150
 RegDown_max_RT(g1,s1,t24): RDn(g1,s1,t24) <= 0
 RegUp_max_RT(g2,s1,t24): RUp(g2,s1,t24) <= 0
 RegDown_max_RT(g2,s1,t24): RDn(g2,s1,t24) <= 0
 RegUp_max_RT(g1,s2,t1): RUp(g1,s2,t1) <= 100
 RegDown_max_RT(g1,s2,t1): RDn(g1,s2,t1) <= 50
 RegUp_max_RT(g2,s2,t1): RUp(g2,s2,t1) <= 0
 RegDown_max_RT(g2,s2,t1): RDn(g2,s2,t1) <= 0
 RegUp_max_RT(g1,s2,t2): RUp(g1,s2,t2) <= 100
 RegDown_max_RT(g1,s2,t2): RDn(g1,s2,t2) <= 50
 RegUp_max_RT(g2,s2,t2): RUp(g2,s2,t2) <= 0
 RegDown_max_RT(g2,s2,t2): RDn(g2,s2,t2) <= 0
 RegUp_max_RT(g1,s2,t3): RUp(g1,s2,t3) <= 100
 RegDown_max_RT(g1,s2,t3): RDn(g1,s2,t3) <= 50
 RegUp_max_RT(g2,s2,t3): RUp(g2,s2,t3) <= 0
 RegDown_max_RT(g2,s2,t3): RDn(g2,s2,t3) <= 0
 RegUp_max_RT(g1,s2,t4): RUp(g1,s2,t4) <= 96.46446609
 RegDown_max_RT(g1,s2,t4): RDn(g1,s2,t4) <= 53.53553391
 RegUp_max_RT(g2,s2,t4): RUp(g2,s2,t4) <= 0
 RegDown_max_RT(g2,s2,t4): RDn(g2,s2,t4) <= 0
 RegUp_max_RT(g1,s2,t5): RUp(g1,s2,t5) <= 119.0600068800002
 RegDown_max_RT(g1,s2,t5): RDn(g1,s2,t5) <= 30.93999311999982
 RegUp_max_RT(g2,s2,t5): RUp(g2,s2,t5) <= 0
 RegDown_max_RT(g2,s2,t5): RDn(g2,s2,t5) <= 0
 RegUp_max_RT(g1,s2,t6): RUp(g1,s2,t6) <= 126.7852353700002
 RegDown_max_RT(g1,s2,t6): RDn(g1,s2,t6) <= 23.21476462999981
 RegUp_max_RT(g2,s2,t6): RUp(g2,s2,t6) <= 0
 RegDown_max_RT(g2,s2,t6): RDn(g2,s2,t6) <= 0
 RegUp_max_RT(g1,s2,t7): RUp(g1,s2,t7) <= 120.8693571500002
 RegDown_max_RT(g1,s2,t7): RDn(g1,s2,t7) <= 29.1306428499998
 RegUp_max_RT(g2,s2,t7): RUp(g2,s2,t7) <= 0
 RegDown_max_RT(g2,s2,t7): RDn(g2,s2,t7) <= 0
 RegUp_max_RT(g1,s2,t8): RUp(g1,s2,t8) <= 113.5433780700002
 RegDown_max_RT(g1,s2,t8): RDn(g1,s2,t8) <= 36.45662192999982
 RegUp_max_RT(g2,s2,t8): RUp(g2,s2,t8) <= 0
 RegDown_max_RT(g2,s2,t8): RDn(g2,s2,t8) <= 0
 RegUp_max_RT(g1,s2,t9): RUp(g1,s2,t9) <= 110.8317482300002
 RegDown_max_RT(g1,s2,t9): RDn(g1,s2,t9) <= 39.16825176999982
 RegUp_max_RT(g2,s2,t9): RUp(g2,s2,t9) <= 0
 RegDown_max_RT(g2,s2,t9): RDn(g2,s2,t9) <= 0
 RegUp_max_RT(g1,s2,t10): RUp(g1,s2,t10) <= 113.7893920400002
 RegDown_max_RT(g1,s2,t10): RDn(g1,s2,t10) <= 36.21060795999981
 RegUp_max_RT(g2,s2,t10): RUp(g2,s2,t10) <= 0
 RegDown_max_RT(g2,s2,t10): RDn(g2,s2,t10) <= 0
 RegUp_max_RT(g1,s2,t11): RUp(g1,s2,t11) <= 120.1875180000002
 RegDown_max_RT(g1,s2,t11): RDn(g1,s2,t11) <= 29.81248199999983
 RegUp_max_RT(g2,s2,t11): RUp(g2,s2,t11) <= 0
 RegDown_max_RT(g2,s2,t11): RDn(g2,s2,t11) <= 0
 RegUp_max_RT(g1,s2,t12): RUp(g1,s2,t12) <= 123.9105017200002
 RegDown_max_RT(g1,s2,t12): RDn(g1,s2,t12) <= 26.08949827999982
 RegUp_max_RT(g2,s2,t12): RUp(g2,s2,t12) <= 0
 RegDown_max_RT(g2,s2,t12): RDn(g2,s2,t12) <= 0
 RegUp_max_RT(g1,s2,t13): RUp(g1,s2,t13) <= 138.8921143500002
 RegDown_max_RT(g1,s2,t13): RDn(g1,s2,t13) <= 11.10788564999982
 RegUp_max_RT(g2,s2,t13): RUp(g2,s2,t13) <= 0
 RegDown_max_RT(g2,s2,t13): RDn(g2,s2,t13) <= 0
 RegUp_max_RT(g1,s2,t14): RUp(g1,s2,t14) <= 142.6755634300002
 RegDown_max_RT(g1,s2,t14): RDn(g1,s2,t14) <= 7.324436569999804
 RegUp_max_RT(g2,s2,t14): RUp(g2,s2,t14) <= 0
 RegDown_max_RT(g2,s2,t14): RDn(g2,s2,t14) <= 0
 RegUp_max_RT(g1,s2,t15): RUp(g1,s2,t15) <= 145.0945321500001
 RegDown_max_RT(g1,s2,t15): RDn(g1,s2,t15) <= 4.905467849999866
 RegUp_max_RT(g2,s2,t15): RUp(g2,s2,t15) <= 0
 RegDown_max_RT(g2,s2,t15): RDn(g2,s2,t15) <= 0
 RegUp_max_RT(g1,s2,t16): RUp(g1,s2,t16) <= 148.6020316600001
 RegDown_max_RT(g1,s2,t16): RDn(g1,s2,t16) <= 1.397968339999864
 RegUp_max_RT(g2,s2,t16): RUp(g2,s2,t16) <= 0
 RegDown_max_RT(g2,s2,t16): RDn(g2,s2,t16) <= 0
 RegUp_max_RT(g1,s2,t17): RUp(g1,s2,t17) <= 150
 RegDown_max_RT(g1,s2,t17): RDn(g1,s2,t17) <= 0
 RegUp_max_RT(g2,s2,t17): RUp(g2,s2,t17) <= 0
 RegDown_max_RT(g2,s2,t17): RDn(g2,s2,t17) <= 0
 RegUp_max_RT(g1,s2,t18): RUp(g1,s2,t18) <= 150
 RegDown_max_RT(g1,s2,t18): RDn(g1,s2,t18) <= 0
 RegUp_max_RT(g2,s2,t18): RUp(g2,s2,t18) <= 0
 RegDown_max_RT(g2,s2,t18): RDn(g2,s2,t18) <= 0
 RegUp_max_RT(g1,s2,t19): RUp(g1,s2,t19) <= 150
 RegDown_max_RT(g1,s2,t19): RDn(g1,s2,t19) <= 0
 RegUp_max_RT(g2,s2,t19): RUp(g2,s2,t19) <= 0
 RegDown_max_RT(g2,s2,t19): RDn(g2,s2,t19) <= 0
 RegUp_max_RT(g1,s2,t20): RUp(g1,s2,t20) <= 150
 RegDown_max_RT(g1,s2,t20): RDn(g1,s2,t20) <= 0
 RegUp_max_RT(g2,s2,t20): RUp(g2,s2,t20) <= 0
 RegDown_max_RT(g2,s2,t20): RDn(g2,s2,t20) <= 0
 RegUp_max_RT(g1,s2,t21): RUp(g1,s2,t21) <= 150
 RegDown_max_RT(g1,s2,t21): RDn(g1,s2,t21) <= 0
 RegUp_max_RT(g2,s2,t21): RUp(g2,s2,t21) <= 0
 RegDown_max_RT(g2,s2,t21): RDn(g2,s2,t21) <= 0
 RegUp_max_RT(g1,s2,t22): RUp(g1,s2,t22) <= 150
 RegDown_max_RT(g1,s2,t22): RDn(g1,s2,t22) <= 0
 RegUp_max_RT(g2,s2,t22): RUp(g2,s2,t22) <= 0
 RegDown_max_RT(g2,s2,t22): RDn(g2,s2,t22) <= 0
 RegUp_max_RT(g1,s2,t23): RUp(g1,s2,t23) <= 150
 RegDown_max_RT(g1,s2,t23): RDn(g1,s2,t23) <= 0
 RegUp_max_RT(g2,s2,t23): RUp(g2,s2,t23) <= 0
 RegDown_max_RT(g2,s2,t23): RDn(g2,s2,t23) <= 0
 RegUp_max_RT(g1,s2,t24): RUp(g1,s2,t24) <= 150
 RegDown_max_RT(g1,s2,t24): RDn(g1,s2,t24) <= 0
 RegUp_max_RT(g2,s2,t24): RUp(g2,s2,t24) <= 0
 RegDown_max_RT(g2,s2,t24): RDn(g2,s2,t24) <= 0
 RegUpSC_max_RT(g1,s1,t1): RUpSC(g1,s1,t1) <= 0
 RegDnSC_max_RT(g1,s1,t1): RDnSC(g1,s1,t1) <= 0
 RegUpSC_max_RT(g1,s1,t2): RUpSC(g1,s1,t2) <= 0
 RegDnSC_max_RT(g1,s1,t2): RDnSC(g1,s1,t2) <= 0
 RegUpSC_max_RT(g1,s1,t3): RUpSC(g1,s1,t3) <= 0
 RegDnSC_max_RT(g1,s1,t3): RDnSC(g1,s1,t3) <= 0
 RegUpSC_max_RT(g1,s1,t4): RUpSC(g1,s1,t4) <= 0
 RegDnSC_max_RT(g1,s1,t4): RDnSC(g1,s1,t4) <= 0
 RegUpSC_max_RT(g1,s1,t5): RUpSC(g1,s1,t5) <= 0
 RegDnSC_max_RT(g1,s1,t5): RDnSC(g1,s1,t5) <= 0
 RegUpSC_max_RT(g1,s1,t6): RUpSC(g1,s1,t6) <= 0
 RegDnSC_max_RT(g1,s1,t6): RDnSC(g1,s1,t6) <= 0
 RegUpSC_max_RT(g1,s1,t7): RUpSC(g1,s1,t7) <= 0
 RegDnSC_max_RT(g1,s1,t7): RDnSC(g1,s1,t7) <= 0
 RegUpSC_max_RT(g1,s1,t8): RUpSC(g1,s1,t8) <= 0
 RegDnSC_max_RT(g1,s1,t8): RDnSC(g1,s1,t8) <= 0
 RegUpSC_max_RT(g1,s1,t9): RUpSC(g1,s1,t9) <= 0
 RegDnSC_max_RT(g1,s1,t9): RDnSC(g1,s1,t9) <= 0
 RegUpSC_max_RT(g1,s1,t10): RUpSC(g1,s1,t10) <= 0
 RegDnSC_max_RT(g1,s1,t10): RDnSC(g1,s1,t10) <= 0
 RegUpSC_max_RT(g1,s1,t11): RUpSC(g1,s1,t11) <= 0
 RegDnSC_max_RT(g1,s1,t11): RDnSC(g1,s1,t11) <= 0
 RegUpSC_max_RT(g1,s1,t12): RUpSC(g1,s1,t12) <= 0
 RegDnSC_max_RT(g1,s1,t12): RDnSC(g1,s1,t12) <= 0
 RegUpSC_max_RT(g1,s1,t13): RUpSC(g1,s1,t13) <= 0
 RegDnSC_max_RT(g1,s1,t13): RDnSC(g1,s1,t13) <= 0
 RegUpSC_max_RT(g1,s1,t14): RUpSC(g1,s1,t14) <= 0
 RegDnSC_max_RT(g1,s1,t14): RDnSC(g1,s1,t14) <= 0
 RegUpSC_max_RT(g1,s1,t15): RUpSC(g1,s1,t15) <= 0
 RegDnSC_max_RT(g1,s1,t15): RDnSC(g1,s1,t15) <= 0
 RegUpSC_max_RT(g1,s1,t16): RUpSC(g1,s1,t16) <= 0
 RegDnSC_max_RT(g1,s1,t16): RDnSC(g1,s1,t16) <= 0
 RegUpSC_max_RT(g1,s1,t17): RUpSC(g1,s1,t17) <= 0
 RegDnSC_max_RT(g1,s1,t17): RDnSC(g1,s1,t17) <= 0
 RegUpSC_max_RT(g1,s1,t18): RUpSC(g1,s1,t18) <= 0
 RegDnSC_max_RT(g1,s1,t18): RDnSC(g1,s1,t18) <= 0
 RegUpSC_max_RT(g1,s1,t19): RUpSC(g1,s1,t19) <= 0
 RegDnSC_max_RT(g1,s1,t19): RDnSC(g1,s1,t19) <= 0
 RegUpSC_max_RT(g1,s1,t20): RUpSC(g1,s1,t20) <= 0
 RegDnSC_max_RT(g1,s1,t20): RDnSC(g1,s1,t20) <= 0
 RegUpSC_max_RT(g1,s1,t21): RUpSC(g1,s1,t21) <= 0
 RegDnSC_max_RT(g1,s1,t21): RDnSC(g1,s1,t21) <= 0
 RegUpSC_max_RT(g1,s1,t22): RUpSC(g1,s1,t22) <= 0
 RegDnSC_max_RT(g1,s1,t22): RDnSC(g1,s1,t22) <= 0
 RegUpSC_max_RT(g1,s1,t23): RUpSC(g1,s1,t23) <= 0
 RegDnSC_max_RT(g1,s1,t23): RDnSC(g1,s1,t23) <= 0
 RegUpSC_max_RT(g1,s1,t24): RUpSC(g1,s1,t24) <= 0
 RegDnSC_max_RT(g1,s1,t24): RDnSC(g1,s1,t24) <= 0
 RegUpSC_max_RT(g1,s2,t1): RUpSC(g1,s2,t1) <= 0
 RegDnSC_max_RT(g1,s2,t1): RDnSC(g1,s2,t1) <= 0
 RegUpSC_max_RT(g1,s2,t2): RUpSC(g1,s2,t2) <= 0
 RegDnSC_max_RT(g1,s2,t2): RDnSC(g1,s2,t2) <= 0
 RegUpSC_max_RT(g1,s2,t3): RUpSC(g1,s2,t3) <= 0
 RegDnSC_max_RT(g1,s2,t3): RDnSC(g1,s2,t3) <= 0
 RegUpSC_max_RT(g1,s2,t4): RUpSC(g1,s2,t4) <= 0
 RegDnSC_max_RT(g1,s2,t4): RDnSC(g1,s2,t4) <= 0
 RegUpSC_max_RT(g1,s2,t5): RUpSC(g1,s2,t5) <= 0
 RegDnSC_max_RT(g1,s2,t5): RDnSC(g1,s2,t5) <= 0
 RegUpSC_max_RT(g1,s2,t6): RUpSC(g1,s2,t6) <= 0
 RegDnSC_max_RT(g1,s2,t6): RDnSC(g1,s2,t6) <= 0
 RegUpSC_max_RT(g1,s2,t7): RUpSC(g1,s2,t7) <= 0
 RegDnSC_max_RT(g1,s2,t7): RDnSC(g1,s2,t7) <= 0
 RegUpSC_max_RT(g1,s2,t8): RUpSC(g1,s2,t8) <= 0
 RegDnSC_max_RT(g1,s2,t8): RDnSC(g1,s2,t8) <= 0
 RegUpSC_max_RT(g1,s2,t9): RUpSC(g1,s2,t9) <= 0
 RegDnSC_max_RT(g1,s2,t9): RDnSC(g1,s2,t9) <= 0
 RegUpSC_max_RT(g1,s2,t10): RUpSC(g1,s2,t10) <= 0
 RegDnSC_max_RT(g1,s2,t10): RDnSC(g1,s2,t10) <= 0
 RegUpSC_max_RT(g1,s2,t11): RUpSC(g1,s2,t11) <= 0
 RegDnSC_max_RT(g1,s2,t11): RDnSC(g1,s2,t11) <= 0
 RegUpSC_max_RT(g1,s2,t12): RUpSC(g1,s2,t12) <= 0
 RegDnSC_max_RT(g1,s2,t12): RDnSC(g1,s2,t12) <= 0
 RegUpSC_max_RT(g1,s2,t13): RUpSC(g1,s2,t13) <= 0
 RegDnSC_max_RT(g1,s2,t13): RDnSC(g1,s2,t13) <= 0
 RegUpSC_max_RT(g1,s2,t14): RUpSC(g1,s2,t14) <= 0
 RegDnSC_max_RT(g1,s2,t14): RDnSC(g1,s2,t14) <= 0
 RegUpSC_max_RT(g1,s2,t15): RUpSC(g1,s2,t15) <= 0
 RegDnSC_max_RT(g1,s2,t15): RDnSC(g1,s2,t15) <= 0
 RegUpSC_max_RT(g1,s2,t16): RUpSC(g1,s2,t16) <= 0
 RegDnSC_max_RT(g1,s2,t16): RDnSC(g1,s2,t16) <= 0
 RegUpSC_max_RT(g1,s2,t17): RUpSC(g1,s2,t17) <= 0
 RegDnSC_max_RT(g1,s2,t17): RDnSC(g1,s2,t17) <= 0
 RegUpSC_max_RT(g1,s2,t18): RUpSC(g1,s2,t18) <= 0
 RegDnSC_max_RT(g1,s2,t18): RDnSC(g1,s2,t18) <= 0
 RegUpSC_max_RT(g1,s2,t19): RUpSC(g1,s2,t19) <= 0
 RegDnSC_max_RT(g1,s2,t19): RDnSC(g1,s2,t19) <= 0
 RegUpSC_max_RT(g1,s2,t20): RUpSC(g1,s2,t20) <= 0
 RegDnSC_max_RT(g1,s2,t20): RDnSC(g1,s2,t20) <= 0
 RegUpSC_max_RT(g1,s2,t21): RUpSC(g1,s2,t21) <= 0
 RegDnSC_max_RT(g1,s2,t21): RDnSC(g1,s2,t21) <= 0
 RegUpSC_max_RT(g1,s2,t22): RUpSC(g1,s2,t22) <= 0
 RegDnSC_max_RT(g1,s2,t22): RDnSC(g1,s2,t22) <= 0
 RegUpSC_max_RT(g1,s2,t23): RUpSC(g1,s2,t23) <= 0
 RegDnSC_max_RT(g1,s2,t23): RDnSC(g1,s2,t23) <= 0
 RegUpSC_max_RT(g1,s2,t24): RUpSC(g1,s2,t24) <= 0
 RegDnSC_max_RT(g1,s2,t24): RDnSC(g1,s2,t24) <= 0
 Max_load_shed_RT(s1,t1): Lshed(s1,t1) <= 50
 Max_load_shed_RT(s1,t2): Lshed(s1,t2) <= 50
 Max_load_shed_RT(s1,t3): Lshed(s1,t3) <= 50
 Max_load_shed_RT(s1,t4): Lshed(s1,t4) <= 53.53553391
 Max_load_shed_RT(s1,t5): Lshed(s1,t5) <= 54.33012702
 Max_load_shed_RT(s1,t6): Lshed(s1,t6) <= 54.82962913
 Max_load_shed_RT(s1,t7): Lshed(s1,t7) <= 55
 Max_load_shed_RT(s1,t8): Lshed(s1,t8) <= 54.82962913
 Max_load_shed_RT(s1,t9): Lshed(s1,t9) <= 54.33012702
 Max_load_shed_RT(s1,t10): Lshed(s1,t10) <= 53.53553391
 Max_load_shed_RT(s1,t11): Lshed(s1,t11) <= 52.5
 Max_load_shed_RT(s1,t12): Lshed(s1,t12) <= 51.29409523
 Max_load_shed_RT(s1,t13): Lshed(s1,t13) <= 50
 Max_load_shed_RT(s1,t14): Lshed(s1,t14) <= 48.70590477
 Max_load_shed_RT(s1,t15): Lshed(s1,t15) <= 47.5
 Max_load_shed_RT(s1,t16): Lshed(s1,t16) <= 46.46446609
 Max_load_shed_RT(s1,t17): Lshed(s1,t17) <= 45.66987298
 Max_load_shed_RT(s1,t18): Lshed(s1,t18) <= 45.17037087
 Max_load_shed_RT(s1,t19): Lshed(s1,t19) <= 45
 Max_load_shed_RT(s1,t20): Lshed(s1,t20) <= 45.17037087
 Max_load_shed_RT(s1,t21): Lshed(s1,t21) <= 45.66987298
 Max_load_shed_RT(s1,t22): Lshed(s1,t22) <= 46.46446609
 Max_load_shed_RT(s1,t23): Lshed(s1,t23) <= 47.5
 Max_load_shed_RT(s1,t24): Lshed(s1,t24) <= 48.70590477
 Max_load_shed_RT(s2,t1): Lshed(s2,t1) <= 50
 Max_load_shed_RT(s2,t2): Lshed(s2,t2) <= 50
 Max_load_shed_RT(s2,t3): Lshed(s2,t3) <= 50
 Max_load_shed_RT(s2,t4): Lshed(s2,t4) <= 53.53553391
 Max_load_shed_RT(s2,t5): Lshed(s2,t5) <= 54.33012702
 Max_load_shed_RT(s2,t6): Lshed(s2,t6) <= 54.82962913
 Max_load_shed_RT(s2,t7): Lshed(s2,t7) <= 55
 Max_load_shed_RT(s2,t8): Lshed(s2,t8) <= 54.82962913
 Max_load_shed_RT(s2,t9): Lshed(s2,t9) <= 54.33012702
 Max_load_shed_RT(s2,t10): Lshed(s2,t10) <= 53.53553391
 Max_load_shed_RT(s2,t11): Lshed(s2,t11) <= 52.5
 Max_load_shed_RT(s2,t12): Lshed(s2,t12) <= 51.29409523
 Max_load_shed_RT(s2,t13): Lshed(s2,t13) <= 50
 Max_load_shed_RT(s2,t14): Lshed(s2,t14) <= 48.70590477
 Max_load_shed_RT(s2,t15): Lshed(s2,t15) <= 47.5
 Max_load_shed_RT(s2,t16): Lshed(s2,t16) <= 46.46446609
 Max_load_shed_RT(s2,t17): Lshed(s2,t17) <= 45.66987298
 Max_load_shed_RT(s2,t18): Lshed(s2,t18) <= 45.17037087
 Max_load_shed_RT(s2,t19): Lshed(s2,t19) <= 45
 Max_load_shed_RT(s2,t20): Lshed(s2,t20) <= 45.17037087
 Max_load_shed_RT(s2,t21): Lshed(s2,t21) <= 45.66987298
 Max_load_shed_RT(s2,t22): Lshed(s2,t22) <= 46.46446609
 Max_load_shed_RT(s2,t23): Lshed(s2,t23) <= 47.5
 Max_load_shed_RT(s2,t24): Lshed(s2,t24) <= 48.70590477
 Max_wind_spill_RT(w1,s1,t1): Wspill(w1,s1,t1) <= 15
 Max_wind_spill_RT(w1,s1,t2): Wspill(w1,s1,t2) <= 20
 Max_wind_spill_RT(w1,s1,t3): Wspill(w1,s1,t3) <= 1
 Max_wind_spill_RT(w1,s1,t4): Wspill(w1,s1,t4) <= 4.1253065
 Max_wind_spill_RT(w1,s1,t5): Wspill(w1,s1,t5) <= 2.2098663
 Max_wind_spill_RT(w1,s1,t6): Wspill(w1,s1,t6) <= 9.975531999999999
 Max_wind_spill_RT(w1,s1,t7): Wspill(w1,s1,t7) <= 8.0801152
 Max_wind_spill_RT(w1,s1,t8): Wspill(w1,s1,t8) <= 5.5851353
 Max_wind_spill_RT(w1,s1,t9): Wspill(w1,s1,t9) <= 3.5486572
 Max_wind_spill_RT(w1,s1,t10): Wspill(w1,s1,t10) <= 2.0480876
 Max_wind_spill_RT(w1,s1,t11): Wspill(w1,s1,t11) <= 1.2519886
 Max_wind_spill_RT(w1,s1,t12): Wspill(w1,s1,t12) <= 1.1052496
 Max_wind_spill_RT(w1,s1,t13): Wspill(w1,s1,t13) <= 2.2132496
 Max_wind_spill_RT(w1,s1,t14): Wspill(w1,s1,t14) <= 5.2503543
 Max_wind_spill_RT(w1,s1,t15): Wspill(w1,s1,t15) <= 4.9080804
 Max_wind_spill_RT(w1,s1,t16): Wspill(w1,s1,t16) <= 4.5589118
 Max_wind_spill_RT(w1,s1,t17): Wspill(w1,s1,t17) <= 4.0975498
 Max_wind_spill_RT(w1,s1,t18): Wspill(w1,s1,t18) <= 4.111687
 Max_wind_spill_RT(w1,s1,t19): Wspill(w1,s1,t19) <= 4.4661513
 Max_wind_spill_RT(w1,s1,t20): Wspill(w1,s1,t20) <= 8.2181029
 Max_wind_spill_RT(w1,s1,t21): Wspill(w1,s1,t21) <= 13.1932122
 Max_wind_spill_RT(w1,s1,t22): Wspill(w1,s1,t22) <= 15.3355975
 Max_wind_spill_RT(w1,s1,t23): Wspill(w1,s1,t23) <= 15.0507472
 Max_wind_spill_RT(w1,s1,t24): Wspill(w1,s1,t24) <= 13.9617342
 Max_wind_spill_RT(w1,s2,t1): Wspill(w1,s2,t1) <= 15
 Max_wind_spill_RT(w1,s2,t2): Wspill(w1,s2,t2) <= 20
 Max_wind_spill_RT(w1,s2,t3): Wspill(w1,s2,t3) <= 1
 Max_wind_spill_RT(w1,s2,t4): Wspill(w1,s2,t4) <= 34.1498389
 Max_wind_spill_RT(w1,s2,t5): Wspill(w1,s2,t5) <= 44.5704015
 Max_wind_spill_RT(w1,s2,t6): Wspill(w1,s2,t6) <= 53.25419700000001
 Max_wind_spill_RT(w1,s2,t7): Wspill(w1,s2,t7) <= 43.6585991
 Max_wind_spill_RT(w1,s2,t8): Wspill(w1,s2,t8) <= 31.1608791
 Max_wind_spill_RT(w1,s2,t9): Wspill(w1,s2,t9) <= 26.7750933
 Max_wind_spill_RT(w1,s2,t10): Wspill(w1,s2,t10) <= 32.6017643
 Max_wind_spill_RT(w1,s2,t11): Wspill(w1,s2,t11) <= 44.1230474
 Max_wind_spill_RT(w1,s2,t12): Wspill(w1,s2,t12) <= 49.3039443
 Max_wind_spill_RT(w1,s2,t13): Wspill(w1,s2,t13) <= 75.57097909999999
 Max_wind_spill_RT(w1,s2,t14): Wspill(w1,s2,t14) <= 77.51258209999999
 Max_wind_spill_RT(w1,s2,t15): Wspill(w1,s2,t15) <= 80.2809839
 Max_wind_spill_RT(w1,s2,t16): Wspill(w1,s2,t16) <= 85.5740837
 Max_wind_spill_RT(w1,s2,t17): Wspill(w1,s2,t17) <= 89.87643009999999
 Max_wind_spill_RT(w1,s2,t18): Wspill(w1,s2,t18) <= 92.8235279
 Max_wind_spill_RT(w1,s2,t19): Wspill(w1,s2,t19) <= 93.2537103
 Max_wind_spill_RT(w1,s2,t20): Wspill(w1,s2,t20) <= 88.8310984
 Max_wind_spill_RT(w1,s2,t21): Wspill(w1,s2,t21) <= 90.06031709999999
 Max_wind_spill_RT(w1,s2,t22): Wspill(w1,s2,t22) <= 94.4099081
 Max_wind_spill_RT(w1,s2,t23): Wspill(w1,s2,t23) <= 96.2561905
 Max_wind_spill_RT(w1,s2,t24): Wspill(w1,s2,t24) <= 95.47851419999999
Bounds
End
